(set-logic QF_UF)
(declare-fun A0 () Bool)
(declare-fun A1 () Bool)
(declare-fun A2 () Bool)
(declare-fun A3 () Bool)
(declare-fun A4 () Bool)
(declare-fun A5 () Bool)
(declare-fun A6 () Bool)
(declare-fun A7 () Bool)
(declare-fun A8 () Bool)
(declare-fun A9 () Bool)
(declare-fun A10 () Bool)
(declare-fun A11 () Bool)
(declare-fun A12 () Bool)
(declare-fun A13 () Bool)
(declare-fun A14 () Bool)
(declare-fun A15 () Bool)
(declare-fun A16 () Bool)
(declare-fun A17 () Bool)
(declare-fun A18 () Bool)
(declare-fun A19 () Bool)
(declare-fun A20 () Bool)
(declare-fun A21 () Bool)
(declare-fun A22 () Bool)
(declare-fun A23 () Bool)
(declare-fun A24 () Bool)
(assert (let ((.def_0 (or A23 A9))) (let ((.def_1 (not .def_0))) (let ((.def_2 (or A11 A11))) (let ((.def_3 (not .def_2))) (let ((.def_4 (and .def_3 .def_1))) (let ((.def_5 (not A18))) (let ((.def_6 (not A12))) (let ((.def_7 (= .def_6 .def_5))) (let ((.def_8 (and A23 A11))) (let ((.def_9 (not .def_8))) (let ((.def_10 (and .def_9 .def_7))) (let ((.def_11 (or .def_10 .def_4))) (let ((.def_12 (not .def_11))) (let ((.def_13 (not A0))) (let ((.def_14 (and A6 .def_13))) (let ((.def_15 (= A22 A2))) (let ((.def_16 (not .def_15))) (let ((.def_17 (and .def_16 .def_14))) (let ((.def_18 (not .def_17))) (let ((.def_19 (or A0 A16))) (let ((.def_20 (not A16))) (let ((.def_21 (or A7 .def_20))) (let ((.def_22 (and .def_21 .def_19))) (let ((.def_23 (= .def_22 .def_18))) (let ((.def_24 (or .def_23 .def_12))) (let ((.def_25 (not A20))) (let ((.def_26 (= A3 .def_25))) (let ((.def_27 (not A13))) (let ((.def_28 (or .def_27 A22))) (let ((.def_29 (and .def_28 .def_26))) (let ((.def_30 (not A2))) (let ((.def_31 (= .def_30 .def_13))) (let ((.def_32 (not A23))) (let ((.def_33 (not A21))) (let ((.def_34 (and .def_33 .def_32))) (let ((.def_35 (not .def_34))) (let ((.def_36 (or .def_35 .def_31))) (let ((.def_37 (or .def_36 .def_29))) (let ((.def_38 (not A19))) (let ((.def_39 (and A14 .def_38))) (let ((.def_40 (not .def_39))) (let ((.def_41 (not A15))) (let ((.def_42 (or .def_38 .def_41))) (let ((.def_43 (not .def_42))) (let ((.def_44 (or .def_43 .def_40))) (let ((.def_45 (not .def_44))) (let ((.def_46 (or .def_25 A8))) (let ((.def_47 (not .def_46))) (let ((.def_48 (not A9))) (let ((.def_49 (and .def_48 A20))) (let ((.def_50 (= .def_49 .def_47))) (let ((.def_51 (not .def_50))) (let ((.def_52 (= .def_51 .def_45))) (let ((.def_53 (and .def_52 .def_37))) (let ((.def_54 (not .def_53))) (let ((.def_55 (or .def_54 .def_24))) (let ((.def_56 (not A5))) (let ((.def_57 (and A12 .def_56))) (let ((.def_58 (or A15 .def_38))) (let ((.def_59 (not .def_58))) (let ((.def_60 (or .def_59 .def_57))) (let ((.def_61 (not .def_60))) (let ((.def_62 (and A13 .def_33))) (let ((.def_63 (not .def_62))) (let ((.def_64 (or .def_20 .def_25))) (let ((.def_65 (or .def_64 .def_63))) (let ((.def_66 (not .def_65))) (let ((.def_67 (and .def_66 .def_61))) (let ((.def_68 (or .def_20 .def_6))) (let ((.def_69 (not A6))) (let ((.def_70 (or A21 .def_69))) (let ((.def_71 (and .def_70 .def_68))) (let ((.def_72 (and A13 .def_38))) (let ((.def_73 (and A22 .def_41))) (let ((.def_74 (and .def_73 .def_72))) (let ((.def_75 (and .def_74 .def_71))) (let ((.def_76 (not .def_75))) (let ((.def_77 (or .def_76 .def_67))) (let ((.def_78 (not A1))) (let ((.def_79 (and A13 .def_78))) (let ((.def_80 (not A11))) (let ((.def_81 (or .def_80 A12))) (let ((.def_82 (or .def_81 .def_79))) (let ((.def_83 (or .def_78 A2))) (let ((.def_84 (not .def_83))) (let ((.def_85 (and .def_80 A18))) (let ((.def_86 (not .def_85))) (let ((.def_87 (and .def_86 .def_84))) (let ((.def_88 (not .def_87))) (let ((.def_89 (and .def_88 .def_82))) (let ((.def_90 (not .def_89))) (let ((.def_91 (or A24 A17))) (let ((.def_92 (or A22 A20))) (let ((.def_93 (and .def_92 .def_91))) (let ((.def_94 (or A18 .def_5))) (let ((.def_95 (not A17))) (let ((.def_96 (and .def_95 .def_20))) (let ((.def_97 (not .def_96))) (let ((.def_98 (or .def_97 .def_94))) (let ((.def_99 (and .def_98 .def_93))) (let ((.def_100 (not .def_99))) (let ((.def_101 (or .def_100 .def_90))) (let ((.def_102 (or .def_101 .def_77))) (let ((.def_103 (and .def_102 .def_55))) (let ((.def_104 (not .def_103))) (let ((.def_105 (= .def_25 A3))) (let ((.def_106 (= .def_32 A24))) (let ((.def_107 (and .def_106 .def_105))) (let ((.def_108 (not .def_107))) (let ((.def_109 (and .def_5 A0))) (let ((.def_110 (and A18 .def_95))) (let ((.def_111 (not .def_110))) (let ((.def_112 (and .def_111 .def_109))) (let ((.def_113 (or .def_112 .def_108))) (let ((.def_114 (not .def_113))) (let ((.def_115 (not A24))) (let ((.def_116 (and .def_5 .def_115))) (let ((.def_117 (not .def_116))) (let ((.def_118 (and A18 .def_78))) (let ((.def_119 (not .def_118))) (let ((.def_120 (or .def_119 .def_117))) (let ((.def_121 (or .def_48 .def_41))) (let ((.def_122 (= A12 .def_41))) (let ((.def_123 (or .def_122 .def_121))) (let ((.def_124 (not .def_123))) (let ((.def_125 (= .def_124 .def_120))) (let ((.def_126 (not .def_125))) (let ((.def_127 (or .def_126 .def_114))) (let ((.def_128 (not .def_127))) (let ((.def_129 (or A12 .def_27))) (let ((.def_130 (not A3))) (let ((.def_131 (or .def_130 A10))) (let ((.def_132 (not .def_131))) (let ((.def_133 (and .def_132 .def_129))) (let ((.def_134 (not A8))) (let ((.def_135 (and A6 .def_134))) (let ((.def_136 (or .def_30 A21))) (let ((.def_137 (or .def_136 .def_135))) (let ((.def_138 (not .def_137))) (let ((.def_139 (or .def_138 .def_133))) (let ((.def_140 (not .def_139))) (let ((.def_141 (and .def_38 .def_69))) (let ((.def_142 (not .def_141))) (let ((.def_143 (not .def_68))) (let ((.def_144 (or .def_143 .def_142))) (let ((.def_145 (not .def_144))) (let ((.def_146 (= A18 .def_38))) (let ((.def_147 (not .def_146))) (let ((.def_148 (or A12 A10))) (let ((.def_149 (and .def_148 .def_147))) (let ((.def_150 (and .def_149 .def_145))) (let ((.def_151 (and .def_150 .def_140))) (let ((.def_152 (not .def_151))) (let ((.def_153 (and .def_152 .def_128))) (let ((.def_154 (not .def_153))) (let ((.def_155 (and A16 A6))) (let ((.def_156 (or A13 .def_69))) (let ((.def_157 (not .def_156))) (let ((.def_158 (or .def_157 .def_155))) (let ((.def_159 (not .def_158))) (let ((.def_160 (and A15 A2))) (let ((.def_161 (not .def_160))) (let ((.def_162 (or .def_6 .def_6))) (let ((.def_163 (or .def_162 .def_161))) (let ((.def_164 (not .def_163))) (let ((.def_165 (and .def_164 .def_159))) (let ((.def_166 (and A10 A13))) (let ((.def_167 (not .def_166))) (let ((.def_168 (not A10))) (let ((.def_169 (and .def_168 .def_25))) (let ((.def_170 (and .def_169 .def_167))) (let ((.def_171 (or A17 A21))) (let ((.def_172 (or .def_41 A10))) (let ((.def_173 (not .def_172))) (let ((.def_174 (or .def_173 .def_171))) (let ((.def_175 (and .def_174 .def_170))) (let ((.def_176 (not .def_175))) (let ((.def_177 (and .def_176 .def_165))) (let ((.def_178 (and A2 A13))) (let ((.def_179 (or .def_20 .def_20))) (let ((.def_180 (not .def_179))) (let ((.def_181 (and .def_180 .def_178))) (let ((.def_182 (or A6 .def_134))) (let ((.def_183 (not .def_182))) (let ((.def_184 (or .def_27 .def_78))) (let ((.def_185 (not .def_184))) (let ((.def_186 (and .def_185 .def_183))) (let ((.def_187 (or .def_186 .def_181))) (let ((.def_188 (not .def_187))) (let ((.def_189 (or .def_5 .def_33))) (let ((.def_190 (and .def_41 A22))) (let ((.def_191 (not .def_190))) (let ((.def_192 (and .def_191 .def_189))) (let ((.def_193 (not .def_192))) (let ((.def_194 (and .def_168 .def_48))) (let ((.def_195 (not .def_194))) (let ((.def_196 (and A7 .def_5))) (let ((.def_197 (not .def_196))) (let ((.def_198 (or .def_197 .def_195))) (let ((.def_199 (or .def_198 .def_193))) (let ((.def_200 (or .def_199 .def_188))) (let ((.def_201 (or .def_200 .def_177))) (let ((.def_202 (not .def_201))) (let ((.def_203 (or .def_202 .def_154))) (let ((.def_204 (not .def_203))) (let ((.def_205 (and .def_204 .def_104))) (let ((.def_206 (or A0 A24))) (let ((.def_207 (not .def_206))) (let ((.def_208 (and A17 A7))) (let ((.def_209 (and .def_208 .def_207))) (let ((.def_210 (not .def_209))) (let ((.def_211 (or A1 A13))) (let ((.def_212 (not .def_211))) (let ((.def_213 (not A4))) (let ((.def_214 (or .def_213 .def_95))) (let ((.def_215 (not .def_214))) (let ((.def_216 (and .def_215 .def_212))) (let ((.def_217 (= .def_216 .def_210))) (let ((.def_218 (= A3 .def_168))) (let ((.def_219 (and .def_25 .def_69))) (let ((.def_220 (not .def_219))) (let ((.def_221 (or .def_220 .def_218))) (let ((.def_222 (or .def_95 A17))) (let ((.def_223 (and .def_56 .def_13))) (let ((.def_224 (or .def_223 .def_222))) (let ((.def_225 (not .def_224))) (let ((.def_226 (and .def_225 .def_221))) (let ((.def_227 (and .def_226 .def_217))) (let ((.def_228 (not .def_227))) (let ((.def_229 (and .def_69 A2))) (let ((.def_230 (or A5 .def_13))) (let ((.def_231 (not .def_230))) (let ((.def_232 (or .def_231 .def_229))) (let ((.def_233 (and .def_48 A17))) (let ((.def_234 (not .def_233))) (let ((.def_235 (not A22))) (let ((.def_236 (and A19 .def_235))) (let ((.def_237 (or .def_236 .def_234))) (let ((.def_238 (or .def_237 .def_232))) (let ((.def_239 (and A9 A18))) (let ((.def_240 (not .def_239))) (let ((.def_241 (or .def_134 .def_69))) (let ((.def_242 (not .def_241))) (let ((.def_243 (and .def_242 .def_240))) (let ((.def_244 (or .def_5 A12))) (let ((.def_245 (or A16 .def_56))) (let ((.def_246 (not .def_245))) (let ((.def_247 (or .def_246 .def_244))) (let ((.def_248 (or .def_247 .def_243))) (let ((.def_249 (not .def_248))) (let ((.def_250 (or .def_249 .def_238))) (let ((.def_251 (and .def_250 .def_228))) (let ((.def_252 (and A22 .def_95))) (let ((.def_253 (= A15 A18))) (let ((.def_254 (and .def_253 .def_252))) (let ((.def_255 (and .def_32 .def_134))) (let ((.def_256 (not .def_255))) (let ((.def_257 (or A10 .def_13))) (let ((.def_258 (not .def_257))) (let ((.def_259 (or .def_258 .def_256))) (let ((.def_260 (not .def_259))) (let ((.def_261 (or .def_260 .def_254))) (let ((.def_262 (not .def_261))) (let ((.def_263 (or .def_32 A0))) (let ((.def_264 (and A1 A10))) (let ((.def_265 (not .def_264))) (let ((.def_266 (and .def_265 .def_263))) (let ((.def_267 (not .def_266))) (let ((.def_268 (= .def_41 .def_69))) (let ((.def_269 (or .def_33 .def_48))) (let ((.def_270 (not .def_269))) (let ((.def_271 (and .def_270 .def_268))) (let ((.def_272 (not .def_271))) (let ((.def_273 (= .def_272 .def_267))) (let ((.def_274 (and .def_273 .def_262))) (let ((.def_275 (not .def_274))) (let ((.def_276 (and .def_13 .def_80))) (let ((.def_277 (not .def_276))) (let ((.def_278 (or A24 A5))) (let ((.def_279 (not .def_278))) (let ((.def_280 (= .def_279 .def_277))) (let ((.def_281 (not .def_280))) (let ((.def_282 (and .def_235 A20))) (let ((.def_283 (not .def_282))) (let ((.def_284 (or A0 A10))) (let ((.def_285 (not .def_284))) (let ((.def_286 (or .def_285 .def_283))) (let ((.def_287 (or .def_286 .def_281))) (let ((.def_288 (and A7 .def_32))) (let ((.def_289 (and .def_38 A21))) (let ((.def_290 (or .def_289 .def_288))) (let ((.def_291 (not .def_290))) (let ((.def_292 (and A13 A14))) (let ((.def_293 (and A15 .def_235))) (let ((.def_294 (or .def_293 .def_292))) (let ((.def_295 (not .def_294))) (let ((.def_296 (or .def_295 .def_291))) (let ((.def_297 (and .def_296 .def_287))) (let ((.def_298 (or .def_297 .def_275))) (let ((.def_299 (and .def_298 .def_251))) (let ((.def_300 (not .def_299))) (let ((.def_301 (and A10 .def_115))) (let ((.def_302 (not A7))) (let ((.def_303 (not A14))) (let ((.def_304 (or .def_303 .def_302))) (let ((.def_305 (not .def_304))) (let ((.def_306 (or .def_305 .def_301))) (let ((.def_307 (not .def_306))) (let ((.def_308 (or A23 A20))) (let ((.def_309 (not .def_308))) (let ((.def_310 (or .def_41 .def_302))) (let ((.def_311 (not .def_310))) (let ((.def_312 (or .def_311 .def_309))) (let ((.def_313 (and .def_312 .def_307))) (let ((.def_314 (and .def_56 A0))) (let ((.def_315 (or A23 .def_302))) (let ((.def_316 (not .def_315))) (let ((.def_317 (and .def_316 .def_314))) (let ((.def_318 (not .def_317))) (let ((.def_319 (and .def_5 A3))) (let ((.def_320 (and A24 A21))) (let ((.def_321 (not .def_320))) (let ((.def_322 (and .def_321 .def_319))) (let ((.def_323 (not .def_322))) (let ((.def_324 (and .def_323 .def_318))) (let ((.def_325 (not .def_324))) (let ((.def_326 (= .def_325 .def_313))) (let ((.def_327 (not .def_326))) (let ((.def_328 (or .def_302 A22))) (let ((.def_329 (not .def_328))) (let ((.def_330 (or A8 A2))) (let ((.def_331 (not .def_330))) (let ((.def_332 (and .def_331 .def_329))) (let ((.def_333 (or .def_6 .def_32))) (let ((.def_334 (not .def_333))) (let ((.def_335 (or A22 .def_235))) (let ((.def_336 (not .def_335))) (let ((.def_337 (and .def_336 .def_334))) (let ((.def_338 (and .def_337 .def_332))) (let ((.def_339 (or A10 .def_48))) (let ((.def_340 (not .def_339))) (let ((.def_341 (and .def_5 .def_27))) (let ((.def_342 (not .def_341))) (let ((.def_343 (or .def_342 .def_340))) (let ((.def_344 (= A24 .def_20))) (let ((.def_345 (not .def_344))) (let ((.def_346 (and A9 .def_95))) (let ((.def_347 (and .def_346 .def_345))) (let ((.def_348 (or .def_347 .def_343))) (let ((.def_349 (and .def_348 .def_338))) (let ((.def_350 (not .def_349))) (let ((.def_351 (and .def_350 .def_327))) (let ((.def_352 (or A1 A7))) (let ((.def_353 (not .def_352))) (let ((.def_354 (or A2 A11))) (let ((.def_355 (and .def_354 .def_353))) (let ((.def_356 (not .def_355))) (let ((.def_357 (or A4 .def_168))) (let ((.def_358 (not .def_357))) (let ((.def_359 (or .def_303 A4))) (let ((.def_360 (and .def_359 .def_358))) (let ((.def_361 (not .def_360))) (let ((.def_362 (or .def_361 .def_356))) (let ((.def_363 (not .def_362))) (let ((.def_364 (or .def_32 .def_38))) (let ((.def_365 (not .def_364))) (let ((.def_366 (or .def_56 .def_69))) (let ((.def_367 (not .def_366))) (let ((.def_368 (or .def_367 .def_365))) (let ((.def_369 (not .def_368))) (let ((.def_370 (and .def_33 A10))) (let ((.def_371 (not .def_370))) (let ((.def_372 (and .def_13 A12))) (let ((.def_373 (and .def_372 .def_371))) (let ((.def_374 (not .def_373))) (let ((.def_375 (or .def_374 .def_369))) (let ((.def_376 (= .def_375 .def_363))) (let ((.def_377 (not .def_376))) (let ((.def_378 (or .def_115 A11))) (let ((.def_379 (and A7 .def_33))) (let ((.def_380 (and .def_379 .def_378))) (let ((.def_381 (and A10 .def_303))) (let ((.def_382 (not .def_381))) (let ((.def_383 (or .def_27 A10))) (let ((.def_384 (not .def_383))) (let ((.def_385 (and .def_384 .def_382))) (let ((.def_386 (not .def_385))) (let ((.def_387 (or .def_386 .def_380))) (let ((.def_388 (not .def_387))) (let ((.def_389 (= A4 A4))) (let ((.def_390 (not .def_389))) (let ((.def_391 (or .def_56 A16))) (let ((.def_392 (= .def_391 .def_390))) (let ((.def_393 (and .def_33 .def_48))) (let ((.def_394 (or .def_235 .def_48))) (let ((.def_395 (not .def_394))) (let ((.def_396 (or .def_395 .def_393))) (let ((.def_397 (and .def_396 .def_392))) (let ((.def_398 (and .def_397 .def_388))) (let ((.def_399 (and .def_398 .def_377))) (let ((.def_400 (not .def_399))) (let ((.def_401 (or .def_400 .def_351))) (let ((.def_402 (not .def_401))) (let ((.def_403 (= .def_402 .def_300))) (let ((.def_404 (and .def_403 .def_205))) .def_404))))))))))))))))))))))))))))))))))))))))))))))))))))))))))))))))))))))))))))))))))))))))))))))))))))))))))))))))))))))))))))))))))))))))))))))))))))))))))))))))))))))))))))))))))))))))))))))))))))))))))))))))))))))))))))))))))))))))))))))))))))))))))))))))))))))))))))))))))))))))))))))))))))))))))))))))))))))))))))))))))))))))))))))))))))))))))))))))))))))))))))))))))))))))))))))))))))))))))))))))))))))
(check-sat)
